DATASET = "thpack4";
INSTANCE = "009";

WIDTH = 233;
HEIGHT = 220;
LENGTH = 587;

NO_OF_SHAPES = 10;
size = [|
  90,70,63 |
  84,78,28 |
  94,85,39 |
  80,76,54 |
  69,50,45 |
  70,57,37 |
  94,61,54 |
  92,44,29 |
  72,53,37 |
  89,43,27 |
|];

verticality = [|
  1,1,1 |
  0,0,1 |
  0,0,1 |
  1,1,1 |
  1,1,1 |
  1,1,1 |
  1,1,1 |
  0,1,1 |
  1,1,1 |
  0,1,1 |
|];

box_count = [
  4,
  15,
  16,
  16,
  10,
  17,
  15,
  20,
  13,
  23,
];
